0Topo.dat                                                                  ELEVin
0BOU.dat                                                                   Bouguer
0Free.dat                                                                  Free-air
0GEO.dat                                                                   GEOIDin
topo_out.dat                                                               Topograp
bouguer_out.dat                                                            Bouguer
FA_out.dat                                                                 Free air
                                                                           Mixed
geoid_out.dat                                                              GRAVout
tempout.dat                                                                Temperat
SHF_out.dat                                                                SHF out
                                                                           CSTR out
                                                                           ESTR out
                                                                           COL out
                                                                           BOUN out
bodies.out                                                                 BODY out
                                                                           ELEM out
                                                                           ISTR out
P_T_out.dat                                                                P/T out
dens.dat                                                                   Density
                                                                           RECA out
5                                                                        Thermo D
comment
   27    27    1    1
      1      0      Sed
  1.000E-06  0.000E+00  2.400E+00  2.400E+00  0.000E+00  0.000E+00  0.000E+00
  2.45E+03  0.000E+00  0  0.000E+00
      2      0      Elba_granits
  3.5E-06  0.000E+00  3.10E+00  3.10E+00  0.000E+00  0.000E+00  0.000E+00
  2.75E+03  0.000E+00  0  0.000E+00
      3      0      AdUC
  1.300E-06  0.000E+00  2.700E+00  2.700E+00  0.000E+00  0.000E+00  0.000E+00
  2.75E+03  0.5E-10  0  0.000E+00
      4      0      NAUC
  3.80E-06  0.000E+00  3.10E+00  3.10E+00  0.000E+00  0.000E+00  0.000E+00
  2.75E+03  0.5E-10  0  0.000E+00
      5      0      TyUC
  1.300E-06  0.000E+00  2.700E+00  2.700E+00  0.000E+00  0.000E+00  0.000E+00
  2.75E+03  0.5E-10  0  0.000E+00
      6      0      PaUC
  2.000E-06  0.000E+00  2.900E+00  2.900E+00  0.000E+00  0.000E+00  0.000E+00
  2.75E+03  0.7E-10  0  0.000E+00
      7      0      Sa
  1.300E-06  0.000E+00  2.700E+00  2.700E+00  0.000E+00  0.000E+00  0.000E+00
  2.80E+03  0.000E+00  0  0.000E+00
      8      0      DiMC
  0.800E-06  0.000E+00  2.700E+00  2.700E+00  0.000E+00  0.000E+00  0.000E+00
  2.85E+03  0.000E+00  0  0.000E+00
      9      0      AdMC
  0.800E-06  0.000E+00  2.700E+00  2.700E+00  0.000E+00  0.000E+00  0.000E+00
  2.82E+03  0.000E+00  0  0.000E+00
      10      0      NAMC
  0.800E-06  0.000E+00  2.700E+00  2.700E+00  0.000E+00  0.000E+00  0.000E+00
  2.82E+03  0.000E+00  0  0.000E+00
      11      0      NAMC
  3.000E-06  0.000E+00  3.10E+00  3.10E+00  0.000E+00  0.000E+00  0.000E+00
  2.82E+03  0.000E+00  0  0.000E+00
      12      0      TyMC
  0.800E-06  0.000E+00  2.700E+00  2.700E+00  0.000E+00  0.000E+00  0.000E+00
  2.82E+03  0.000E+00  0  0.000E+00
      13      0      NALC
  1.000E-06  0.000E+00  3.10E+00  3.10E+00  0.000E+00  0.000E+00  0.000E+00
  2.92E+03  0.000E+00  0  0.000E+00
      14      0      TyLC
  0.600E-06  0.000E+00  2.100E+00  2.100E+00  0.000E+00  0.000E+00  0.000E+00
  2.92E+03  0.000E+00  0  0.000E+00
      15      0      TyLC2
  0.600E-06  0.000E+00  2.100E+00  2.100E+00  0.000E+00  0.000E+00  0.000E+00
  2.92E+03  0.000E+00  0  0.000E+00
      16      0      PaLC
  0.600E-06  0.000E+00  2.100E+00  2.100E+00  0.000E+00  0.000E+00  0.000E+00
  2.95E+03  0.000E+00  0  0.000E+00
      17      0      DiLC
  0.600E-06  0.000E+00  2.100E+00  2.100E+00  0.000E+00  0.000E+00  0.000E+00
  2.92E+03  0.000E+00  0  0.000E+00
      18      0      DiLC2
  0.600E-06  0.000E+00  2.100E+00  2.100E+00  0.000E+00  0.000E+00  0.000E+00
  2.95E+03  0.000E+00  0  0.000E+00
      19      0      AdLC
  0.600E-06  0.000E+00  2.100E+00  2.100E+00  0.000E+00  0.000E+00  0.000E+00
  2.95E+03  0  0  0.000E+00
      20      41      PBmantle
  2.000E-08  0.000E+00  2.100E+00  2.100E+00  0.000E+00  0.000E+00  0.000E+00
  3.245E+03  0.000E+00  0  0.000E+00
      21      23      Wedge
  2.000E-08  0.000E+00  2.100E+00  2.100E+00  0.000E+00  0.000E+00  0.000E+00
  3.245E+03  0.000E+00  0  0.000E+00
      22      82      ADmantle
  2.000E-08  0.000E+00  2.100E+00  2.100E+00  0.000E+00  0.000E+00  0.000E+00
  3.245E+03  0.000E+00  0  0.000E+00
      23      23      Wedge
  2.000E-08  0.000E+00  2.100E+00  2.100E+00  0.000E+00  0.000E+00  0.000E+00
  3.245E+03  0.000E+00  0  0.000E+00
      24      82      TYmantle
  2.000E-08  0.000E+00  2.100E+00  2.100E+00  0.000E+00  0.000E+00  0.000E+00
  3.245E+03  0.000E+00  0  0.000E+00
      25      82      Thermal
  0.000E+00  0.000E+00  3.300E+00  3.300E+00  0.000E+00  1.500E-03  1.300E+02
  -3.100E+03  -200.0  -1  0.000E+00
      26      82      Thermal
  0.000E+00  0.000E+00  3.300E+00  3.300E+00  0.000E+00  1.500E-03  1.300E+02
  -3.100E+03  -200.0  -1  0.000E+00
      27      99      asthenosphere
  0.000E-08  0.000E+00  6.600E+08  6.600E+08  0.000E+00  0.000E+00  0.000E+00
  3.603E+03  0.000E+00  1  0.000E+00
1                 Sed
      0.   -429.   5000.   -518.  10000.   -625.  15000.   -657.
  20000.   -616.  25000.   -535.  30000.   -413.  35000.   -333.
  40000.   -199.  45000.   -108.  50000.   -126.  55000.   -160.
  60000.   -107.  65000.    -69.  70000.   -113.  75000.    -94.
  80000.    -84.  85000.    -87.  90000.    -98.  95000.    -85.
 100000.    -58. 105000.    -48. 110000.    -11. 115000.     54.
 120000.     97. 125000.     98. 130000.    110. 135000.    148.
 140000.    274. 145000.    366. 150000.    316. 155000.    283.
 160000.    298. 165000.    266. 170000.    286. 175000.    281.
 180000.    249. 185000.    257. 190000.    295. 195000.    383.
 200000.    388. 205000.    339. 210000.    290. 215000.    292.
 220000.    263. 225000.    389. 230000.    479. 235000.    547.
 240000.    559. 245000.    443. 250000.    378. 255000.    501.
 260000.    698. 265000.    693. 270000.    679. 275000.    668.
 280000.    614. 285000.    522. 290000.    383. 295000.    360.
 300000.    338. 305000.    265. 310000.    183. 315000.    136.
 320000.     86. 325000.     61. 330000.     25. 335000.     -4.
 340000.    -17. 345000.    -24. 350000.    -35. 355000.    -44.
 360000.    -52. 365000.    -58. 370000.    -63. 375000.    -65.
 380000.    -67. 385000.    -66. 390000.    -67. 395000.    -66.
 400000.    -65. 405000.    -62. 410000.    -60. 415000.    -58.
 420000.    -55. 425000.    -52. 430000.    -50. 435000.    -49.
 440000.    -48. 445000.    -47. 450000.    -47. 455000.    -43.
 460000.    -42. 465000.    -30. 470000.    -12. 475000.    -13.
 480000.      0. 485000.     12. 490000.     33. 495000.     55.
 500000.      0. 505000.     25. 510000.     38. 515000.    -17.
 520000.     53. 525000.    107. 530000.     75. 535000.    313.
 540000.    652. 545000.    921. 550000.    928. 555000.    875.
 560000.    718. 565000.    715. 570000.    537. 575000.    433.
 580000.    387. 585000.    233. 590000.    224. 595000.    204.
 600000.    198. 605000.    198. 610000.    175. 615000.    171.
 620000.    191. 625000.    202. 630000.    194. 635000.    165.
 640000.    153. 645000.    147. 650000.    161. 655000.    163.
 660000.    164. 665000.    151. 670000.    138. 675000.    135.
 680000.    135. 685000.    124. 690000.    131. 695000.    138.
 700000.    143. 705000.    142. 710000.    144. 715000.    143.
 720000.    153. 725000.    175. 730000.    187. 735000.    173.
 740000.    150. 745000.    127. 750000.    119. 755000.    119.
 760000.    132. 765000.    133. 770000.    138. 775000.    145.
 780000.    147. 785000.    153. 790000.    157. 795000.    173.
 800000.    175. 805000.    177. 810000.    185. 815000.    186.
 820000.    173. 825000.    164. 830000.    168. 835000.    172.
 840000.    176. 845000.    175. 850000.    173. 855000.    156.
 860000.    149. 865000.    148. 870000.    139. 875000.    119.
 880000.    111. 885000.    116. 890000.    111. 895000.    122.
 900000.    113. 905000.    100. 910000.     95. 915000.     94.
 920000.     92. 925000.     94. 930000.     96. 935000.     99.
 940000.    101. 945000.    105. 950000.    110. 955000.    118.
 960000.    119. 965000.    118. 970000.    115. 975000.    110.
 980000.    103. 985000.     94. 990000.     88. 995000.     85.
1000000.     83.1005000.     82.1010000.     82.1015000.     81.
1020000.     81.1025000.     81.1030000.     81.1035000.     81.
1040000.     82.1045000.     82.1050000.     82.1055000.     82.
1060000.     83.1065000.     84.1070000.     84.1070000.  -2311.
1041000.  -2094.1016000.  -1862.1004000.  -2553. 998000.  -2449.
 980000.  -1668. 967000.  -1892. 942000.  -1877. 934000.  -2214.
 927000.  -1960. 919000.  -1989. 917000.  -2281. 907000.  -2334.
 891000.  -3455. 883000.  -3909. 874000.  -3775. 869000.  -3487.
 858000.  -3038. 850000.  -3482. 840000.  -2925. 834000.  -2536.
 819000.  -2229. 815000.  -2416. 807000.  -2461. 797000.  -2283.
 791000.  -1841. 785000.  -1929. 779000.  -2283. 770000.  -2253.
 765000.  -1959. 755000.  -2401. 751000.  -2578. 742000.  -2371.
 726000.  -3315. 719000.  -2843. 711000.  -1854. 705000.  -1626.
 698000.  -1626. 688000.  -1968. 671000.  -1683. 645000.   -839.
 582000.      1. 575000.     92. 560000.    318. 541000.     55.
 517000.   -499. 495000.   -654. 474000.   -962. 459000.   -993.
 434000.  -1086. 412000.  -2015. 390000.  -2905. 350000.  -3925.
 339000.  -4086. 325000.  -1594. 312000.   -895. 304000.  -1430.
 297000.  -1731. 289000.  -1430. 277000.  -2389. 262000.  -1361.
 254000.  -1807. 238000.  -1865. 226000.  -1485. 204000.  -1923.
 173000.  -1841. 153000.  -1600. 142000.  -1738. 128000.  -1883.
 118000.  -2468. 113000.  -2643. 108000.  -2789. 104000.  -2810.
 101000.  -2706.  99000.  -2634.  95000.  -2603.  89000.  -2458.
  80000.  -1936.  70000.  -1411.  57000.  -2976.  48000.  -2109.
  43000.  -2071.  28000.  -4276.  15000.  -5171.      0.  -4641.
      0.   -429.
2                 Elba_granits
  57000.  -2976.  70000.  -1411.  80000.  -1936.  89000.  -2458.
  95000.  -2603. 100000.  -3981.  97000.  -8694.  81000.  -6978.
  74000.  -6144.  67000.  -4875.  57000.  -2976.
3                 AdUC
 238000.  -1865. 254000.  -1807. 262000.  -1361. 277000.  -2389.
 289000.  -1430. 297000.  -1731. 304000.  -1430. 312000.   -895.
 325000.  -1594. 339000.  -4086. 350000.  -3925. 390000.  -2905.
 412000.  -2015. 434000.  -1086. 459000.   -993. 474000.   -962.
 495000.   -654. 517000.   -499. 541000.     55. 560000.    318.
 575000.     92. 582000.      1. 645000.   -839. 659000.  -5056.
 683000.  -6741. 696000.  -7440. 705000.  -8280. 716000. -10598.
 747000. -22293. 638000. -18186. 595000. -18457. 566000. -18660.
 546000. -17650. 529000. -16691. 516000. -16091. 494000. -14266.
 516000. -16091. 494000. -14266. 486000. -15595. 480000. -13668.
 466000. -12253. 442000. -12964. 421000. -13488. 401000. -14056.
 375000. -14366. 361000. -14089. 336000. -13513. 325000. -11363.
 297000. -13620. 278000.  -9751. 271000. -11083. 265000. -12172.
 260000. -13203. 255000. -12701. 236000. -12079. 236000.  -8467.
 237000.  -5574. 238000.  -1865.
4                 NAUC
 104000.  -2810. 108000.  -2789. 113000.  -2643. 118000.  -2468.
 128000.  -1883. 142000.  -1738. 153000.  -1600. 173000.  -1841.
 204000.  -1923. 226000.  -1485. 238000.  -1865. 237000.  -5574.
 236000.  -8467. 236000. -12079. 235000. -12040. 234000. -11995.
 229000. -11982. 197000. -11328. 173000. -11179. 154000. -11069.
 136000. -10631. 121000. -10557. 102000. -10741. 101000. -10761.
 100000. -10741. 101000.  -8457. 102000.  -6568. 103000.  -4388.
 104000.  -2810.
5                 TyUC
      0.  -4641.  15000.  -5171.  28000.  -4276.  43000.  -2071.
  48000.  -2109.  57000.  -2976.  67000.  -4875.  74000.  -6144.
  81000.  -6978.  97000.  -8694. 100000.  -3981.  95000.  -2603.
  99000.  -2634. 101000.  -2706. 104000.  -2810. 103000.  -4388.
 102000.  -6568. 101000.  -8457. 100000. -10741.  93000. -10814.
  77000. -10892.  62000. -10984.  29000. -12131.      0. -12321.
      0.  -4641.
6                 PaUC
 711000.  -1854. 719000.  -2843. 726000.  -3315. 742000.  -2371.
 751000.  -2578. 755000.  -2401. 765000.  -1959. 770000.  -2253.
 779000.  -2283. 785000.  -1929. 791000.  -1841. 797000.  -2283.
 807000.  -2461. 815000.  -2416. 819000.  -2229. 834000.  -2536.
 840000.  -2925. 850000.  -3482. 858000.  -3038. 869000.  -3487.
 874000.  -3775. 883000.  -3909. 891000.  -3455. 907000.  -2334.
 917000.  -2281. 919000.  -1989. 927000.  -1960. 934000.  -2214.
 942000.  -1877. 967000.  -1892. 980000.  -1668. 998000.  -2449.
1004000.  -2553.1016000.  -1862.1041000.  -2094.1070000.  -2311.
1070000. -20074.1000000. -19880. 902000. -19965. 878000. -19789.
 855000. -20898. 810000. -21574. 796000. -22156. 773000. -23711.
 766000. -24005. 752000. -22280. 741000. -15562. 734000. -12066.
 729000. -10019. 724000.  -7290. 721000.  -5169. 717000.  -3823.
 711000.  -1854.
7                 Sa
 747000. -22293. 716000. -10598. 705000.  -8280. 696000.  -7440.
 683000.  -6741. 659000.  -5056. 645000.   -839. 671000.  -1683.
 688000.  -1968. 698000.  -1626. 705000.  -1626. 711000.  -1854.
 717000.  -3823. 721000.  -5169. 724000.  -7290. 729000. -10019.
 734000. -12066. 741000. -15562. 752000. -22280. 754000. -23445.
 755000. -24777. 757000. -26416. 755000. -26053. 753000. -25453.
 752000. -24813. 751000. -24233. 750000. -23513. 749000. -22893.
 747000. -22293.
8                 DiMC
 486000. -15595. 494000. -14266. 516000. -16091. 494000. -14266.
 516000. -16091. 529000. -16691. 546000. -17650. 566000. -18660.
 595000. -18457. 638000. -18186. 747000. -22293. 749000. -22893.
 750000. -23513. 751000. -24233. 670000. -25776. 656000. -26142.
 640000. -25504. 619000. -26250. 598000. -27266. 578000. -29082.
 560000. -31470. 551000. -31409. 546000. -31544. 543000. -31457.
 540000. -31457. 538000. -28496. 532000. -25052. 530000. -23571.
 525000. -23505. 525000. -22078. 509000. -19340. 498000. -17952.
 486000. -15595.
9                 AdMC
 336000. -13513. 361000. -14089. 375000. -14366. 401000. -14056.
 421000. -13488. 442000. -12964. 466000. -12253. 480000. -13668.
 486000. -15595. 498000. -17952. 509000. -19340. 525000. -22078.
 525000. -23505. 516000. -22478. 506000. -22297. 500000. -22357.
 494000. -22900. 479000. -22297. 460000. -21658. 428000. -21024.
 405000. -21179. 385000. -21489. 364000. -22005. 315000. -24112.
 312000. -23304. 308000. -22603. 305000. -22253. 302000. -21565.
 308000. -20675. 314000. -19353. 318000. -17751. 323000. -15641.
 336000. -13513.
10                 NAMC
 234000. -11995. 235000. -12040. 236000. -12079. 255000. -12701.
 260000. -13203. 265000. -12172. 271000. -11083. 278000.  -9751.
 297000. -13620. 325000. -11363. 336000. -13513. 323000. -15641.
 318000. -17751. 314000. -19353. 308000. -20675. 302000. -21565.
 289000. -20241. 285000. -20057. 280000. -20084. 277000. -22043.
 276000. -23276. 272000. -23711. 266000. -24091. 261000. -24091.
 257000. -24007. 251000. -23928. 240000. -22521. 220000. -20941.
 228000. -17070. 232000. -14584. 234000. -11995.
11                 NAMC
 102000. -10741. 121000. -10557. 136000. -10631. 154000. -11069.
 173000. -11179. 197000. -11328. 229000. -11982. 234000. -11995.
 232000. -14584. 228000. -17070. 220000. -20941. 215000. -20778.
 190000. -20787. 162000. -18071. 129000. -17388. 101000. -17633.
 100000. -17571. 101000. -14311. 101000. -12505. 102000. -10741.
12                 TyMC
      0. -12321.  29000. -12131.  62000. -10984.  77000. -10892.
  93000. -10814. 100000. -10741. 101000. -10761. 102000. -10741.
 101000. -12505. 101000. -14311. 100000. -17571.  89000. -17343.
  84000. -17388.  34000. -18454.      0. -17822.      0. -12321.
13                 NALC
 101000. -17633. 129000. -17388. 162000. -18071. 190000. -20787.
 215000. -20778. 220000. -20941. 240000. -22521. 251000. -23928.
 245000. -25076. 235000. -25602. 184000. -24662. 142000. -23502.
 100000. -22880. 100000. -20847. 101000. -18817. 101000. -17633.
14                 TyLC
      0. -17822.  34000. -18454.  84000. -17388.  89000. -17343.
 100000. -17571. 101000. -17633. 101000. -18817. 100000. -20847.
 100000. -22880.  82000. -22849.  33000. -23766.      0. -23133.
      0. -17822.
15                 TyLC2
 276000. -23276. 277000. -22043. 280000. -20084. 285000. -20057.
 289000. -20241. 302000. -21565. 305000. -22253. 308000. -22603.
 312000. -23304. 315000. -24112. 310000. -24981. 298000. -27066.
 291000. -27596. 280000. -30538. 267000. -37224. 269000. -31519.
 271000. -28219. 273000. -26352. 274000. -25015. 276000. -23276.
16                 PaLC
 757000. -26416. 755000. -24777. 754000. -23445. 752000. -22280.
 766000. -24005. 773000. -23711. 796000. -22156. 810000. -21574.
 855000. -20898. 878000. -19789. 902000. -19965.1000000. -19880.
1070000. -20074.1070000. -24110. 969000. -24710. 902000. -24875.
 879000. -24353. 855000. -24875. 840000. -25040. 811000. -25412.
 784000. -27380. 759000. -27308. 758000. -26692. 757000. -26416.
17                 DiLC
 494000. -22900. 500000. -22357. 506000. -22297. 516000. -22478.
 525000. -23505. 530000. -23571. 532000. -25052. 538000. -28496.
 540000. -31457. 541000. -33280. 542000. -35332. 542000. -37745.
 532000. -34487. 524000. -29297. 520000. -27245. 515000. -25797.
 507000. -24168. 501000. -23504. 494000. -22900.
18                 DiLC2
 560000. -31470. 578000. -29082. 598000. -27266. 619000. -26250.
 640000. -25504. 656000. -26142. 670000. -25776. 751000. -24233.
 752000. -24813. 753000. -25453. 732000. -26984. 701000. -28089.
 647000. -32213. 620000. -33094. 594000. -33839. 575000. -33839.
 567000. -32958. 560000. -31470.
19                 AdLC
 267000. -37224. 280000. -30538. 291000. -27596. 298000. -27066.
 310000. -24981. 315000. -24112. 364000. -22005. 385000. -21489.
 405000. -21179. 428000. -21024. 460000. -21658. 479000. -22297.
 494000. -22900. 501000. -23504. 507000. -24168. 515000. -25797.
 520000. -27245. 524000. -29297. 532000. -34487. 542000. -37745.
 555000. -41925. 561000. -45244. 516000. -36707. 477000. -32794.
 427000. -30780. 392000. -31193. 338000. -32959. 317000. -35266.
 296000. -38270. 282000. -41511. 255000. -52486. 257000. -47043.
 260000. -43058. 267000. -37224.
20                 PBmantle
 759000. -27308. 784000. -27380. 811000. -25412. 840000. -25040.
 855000. -24875. 879000. -24353. 902000. -24875. 969000. -24710.
1070000. -24110.1070000. -85764. 936000. -85847. 847000. -85710.
 800000. -89624. 785000. -74166. 776000. -56581. 764000. -37308.
 759000. -27308.
21                 Wedge
 551000. -31409. 560000. -31470. 567000. -32958. 575000. -33839.
 594000. -33839. 620000. -33094. 647000. -32213. 701000. -28089.
 732000. -26984. 753000. -25453. 755000. -26053. 757000. -26416.
 758000. -26692. 759000. -27308. 764000. -37308. 776000. -56581.
 785000. -74166. 800000. -89624. 755000.-100198. 718000.-106343.
 701000.-111841. 681000.-123485. 657000. -96358. 635000. -78787.
 580000. -45699. 551000. -31409.
22                 ADmantle
 255000. -52486. 282000. -41511. 296000. -38270. 317000. -35266.
 338000. -32959. 392000. -31193. 427000. -30780. 477000. -32794.
 516000. -36707. 561000. -45244. 555000. -41925. 542000. -37745.
 542000. -35332. 541000. -33280. 540000. -31457. 543000. -31457.
 546000. -31544. 551000. -31409. 580000. -45699. 635000. -78787.
 657000. -96358. 681000.-123485. 598000.-149360. 572000.-157284.
 519000.-138363. 461000.-123485. 400000.-112771. 336000.-144197.
 295000.-128549. 266000.-117856. 244000.-106903. 231000. -78476.
 241000. -68271. 250000. -57813. 255000. -52486.
23                 Wedge
 184000. -24662. 235000. -25602. 245000. -25076. 251000. -23928.
 257000. -24007. 261000. -24091. 266000. -24091. 272000. -23711.
 276000. -23276. 274000. -25015. 273000. -26352. 271000. -28219.
 269000. -31519. 267000. -37224. 260000. -43058. 257000. -47043.
 255000. -52486. 250000. -57813. 241000. -68271. 231000. -78476.
 209000. -73390. 152000. -76911. 115000. -77346. 145000. -53806.
 171000. -34166. 184000. -24662.
24                 TYmantle
      0. -23133.  33000. -23766.  82000. -22849. 100000. -22880.
 142000. -23502. 184000. -24662. 171000. -34166. 145000. -53806.
 115000. -77346.  65000. -81342.  30000. -92353.      0.-124288.
      0. -23133.
25                 Thermal
 577000.-159734. 685000.-125386. 720000.-189977. 629000.-209062.
 577000.-159734.
26                 Thermal
 235000.-115000. 330000.-152000. 205000.-392000. 115000.-363000.
 235000.-115000.
27                 asthenosphere
      0.-124288.  30000. -92353.  65000. -81342. 115000. -77346.
 152000. -76911. 209000. -73390. 231000. -78476. 244000.-106903.
 266000.-117856. 295000.-128549. 336000.-144197. 400000.-112771.
 461000.-123485. 519000.-138363. 572000.-157284. 598000.-149360.
 681000.-123485. 701000.-111841. 718000.-106343. 755000.-100198.
 800000. -89624. 847000. -85710. 936000. -85847.1070000. -85764.
1070000. -85764.1070000.-400000.      0.-400000.      0.-124288.
0 1 1 0 0
0.,0.,0.,0.,0.
0.,0.,1320.,0.,0.
0  5000  215  96
      0.   -500.  -1500.  -2000.  -2500.  -3000.  -3500.  -4000.
  -4500.  -5500.  -6000.  -6500.  -7000.  -8000.  -9000. -10000.
 -11000. -12000. -13000. -14000. -15000. -17000. -19000. -21000.
 -23000. -25000. -27000. -29000. -31000. -33000. -35000. -37000.
 -40000. -43000. -46000. -49000. -52000. -55000. -58000. -61000.
 -64000. -67000. -70000. -75000. -80000. -85000. -90000. -95000.
-100000.-105000.-110000.-115000.-120000.-125000.-130000.-135000.
-140000.-145000.-150000.-155000.-160000.-165000.-170000.-175000.
-180000.-185000.-190000.-195000.-200000.-205000.-210000.-215000.
-220000.-225000.-230000.-240000.-250000.-260000.-270000.-280000.
-290000.-300000.-305000.-310000.-315000.-320000.-330000.-340000.
-350000.-360000.-370000.-380000.-390000.-400000.-410000.-420000.
0,4,5,3,4
0,0,0,0,0