0Topo.dat                                                                  ELEVin
0Med_CBA.dat                                                               Bouguer
0Med_FAA.dat                                                               Free-air
0Geoid.dat                                                                 GEOIDin
topo_out.dat                                                               Topograp
bouguer_out.dat                                                            Bouguer
FA_out.dat                                                                 Free air
                                                                           Mixed
geoid_out.dat                                                              GRAVout
tempout.dat                                                                Temperat
SHF_out.dat                                                                SHF out
                                                                           CSTR out
                                                                           ESTR out
                                                                           COL out
                                                                           BOUN out
bodies.out                                                                 BODY out
                                                                           ELEM out
                                                                           ISTR out
P_T_out.dat                                                                P/T out
dens.dat                                                                   Density
                                                                           RECA out
5                                                                        Thermo D
comment
   21    21    0    1
      1      0      sediment
  1.000E-06  0.000E+00  2.400E+00  2.400E+00  0.000E+00  0.000E+00  0.000E+00
  2.45E+03  0.000E+00  0  0.000E+00
      2      0      Dacia_UC
  2.000E-06  0.000E+00  2.900E+00  2.900E+00  0.000E+00  0.000E+00  0.000E+00
  2.75E+03  0.000E+00  0  0.000E+00
      3      0      Sava
  1.300E-06  0.000E+00  2.700E+00  2.700E+00  0.000E+00  0.000E+00  0.000E+00
  2.85E+03  0.000E-11  0  0.000E+00
      4      0      DI_UC
  2.000E-06  0.000E+00  2.700E+00  2.700E+00  0.000E+00  0.000E+00  0.000E+00
  2.75E+03  9.000E-11  0  0.000E+00
      5      0      AS_UC
  2.000E-06  0.000E+00  2.700E+00  2.700E+00  0.000E+00  0.000E+00  0.000E+00
  2.78E+03  9.000E-11  0  0.000E+00
      6      0      AP_UC
  2.000E-06  0.000E+00  2.700E+00  2.700E+00  0.000E+00  0.000E+00  0.000E+00
  2.78E+03  0.000E-11  0  0.000E+00
      7      0      Magmatic_UC_2
  2.000E-06  0.000E+00  2.700E+00  2.700E+00  0.000E+00  0.000E+00  0.000E+00
  2.80E+03  0.000E+00  0  0.000E+0
      8      0      Ty_serpentinized_UL
  0.0200E-06  0.000E+00  1.600E+00  1.600E+00  0.000E+00  0.000E+00  0.000E+00
  2.870E+03  0.000E+00  0  0.000E+00
      9      0      Magmatic_UC_1
  2.000E-06  0.000E+00  2.700E+00  2.700E+00  0.000E+00  0.000E+00  0.000E+00
  2.80E+03  0.000E+00  0  0.000E+0
      10      0      Dacia_LC
  0.600E-06  0.000E+00  2.100E+00  2.100E+00  0.000E+00  0.000E+00  0.000E+00
  2.88E+03  0.000E+00  0  0.000E+00
      11      0      Adria_MC
  0.600E-06  0.000E+00  2.100E+00  2.100E+00  0.000E+00  0.000E+00  0.000E+00
  2.88E+03  0.000E-11  0  0.000E+00
      12      0      AP_LC
  0.600E-06  0.000E+00  2.100E+00  2.100E+00  0.000E+00  0.000E+00  0.000E+00
  2.85E+03  0  0  0.000E+00
      13      0      Magmatic_LC_2
  0.800E-06  0.000E+00  2.100E+00  2.100E+00  0.000E+00  0.000E+00  0.000E+00
  2.90E+03  0.000E+00  0  0.000E+00
      14      0      Magmatic_LC_1
  0.800E-06  0.000E+00  2.100E+00  2.100E+00  0.000E+00  0.000E+00  0.000E+00
  2.90E+03  0.000E+00  0  0.000E+00
      15      0      Ty_lower_serpentinized
  0.0200E-06  0.000E+00  2.400E+00  2.400E+00  0.000E+00  1.500E-03  1.300E+02
  2.98E+03  0.000E+00  1  0.000E+00
      16      82      mantle
  2.000E-08  0.000E+00  2.100E+00  2.100E+00  0.000E+00  1.500E-03  1.300E+02
  3.245E+03  0.000E+00  1  0.000E+00
      17      0      Adria_LC_L
  0.600E-06  0.000E+00  2.100E+00  2.100E+00  0.000E+00  0.000E+00  0.000E+00
  3.08E+03  0.000E+00  0  0.000E+00
      18      23      Mantle_wedge
  2.000E-08  0.000E+00  2.100E+00  2.100E+00  0.000E+00  1.500E-03  1.300E+02
  3.245E+03  0.000E+00  1  0.000E+00
      19      82      mantle
  2.000E-08  0.000E+00  2.100E+00  2.100E+00  0.000E+00  1.500E-03  1.300E+02
  3.245E+03  0.000E+00  1  0.000E+00
      20      26      mantle
  2.000E-08  0.000E+00  2.100E+00  2.100E+00  0.000E+00  1.500E-03  1.300E+02
  3.245E+03  0.000E+00  1  0.000E+00
      21      99      asthenosphere
  0.000E-08  0.000E+00  6.600E+08  6.600E+08  0.000E+00  0.000E+00  0.000E+00
  3.603E+03  0.000E+00  1  0.000E+00
1                 sediment
      0.  -1602.   5000.  -1643.  10000.  -1691.  15000.  -1641.
  20000.  -1923.  25000.  -2028.  30000.  -2046.  35000.  -2223.
  40000.  -2376.  45000.  -2402.  50000.  -2471.  55000.  -2342.
  60000.  -2435.  65000.  -2487.  70000.  -2682.  75000.  -2738.
  80000.  -2750.  85000.  -2779.  90000.  -2807.  95000.  -2847.
 100000.  -2871. 105000.  -2899. 110000.  -2919. 115000.  -2928.
 120000.  -2931. 125000.  -3004. 130000.  -3067. 135000.  -3145.
 140000.  -3177. 145000.  -3173. 150000.  -3042. 155000.  -3038.
 160000.  -3392. 165000.  -3471. 170000.  -3456. 175000.  -3459.
 180000.  -3487. 185000.  -3498. 190000.  -3508. 195000.  -3470.
 200000.  -3524. 205000.  -3511. 210000.  -3381. 215000.  -3366.
 220000.  -3175. 225000.  -2796. 230000.  -3314. 235000.  -3573.
 240000.  -3603. 245000.  -3562. 250000.  -3590. 255000.  -3597.
 260000.  -3205. 265000.  -3207. 270000.  -3116. 275000.  -3109.
 280000.  -3052. 285000.  -3013. 290000.  -2827. 295000.  -2663.
 300000.  -2544. 305000.  -2513. 310000.  -2428. 315000.  -2410.
 320000.  -2307. 325000.  -2131. 330000.  -2142. 335000.  -1990.
 340000.  -2137. 345000.  -1999. 350000.  -2029. 355000.  -1714.
 360000.  -1846. 365000.  -1481. 370000.  -1264. 375000.  -1214.
 380000.  -1182. 385000.   -992. 390000.   -888. 395000.   -742.
 400000.   -684. 405000.   -574. 410000.   -399. 415000.   -241.
 420000.   -170. 425000.   -120. 430000.    -88. 435000.    -14.
 440000.     50. 445000.    121. 450000.    235. 455000.    282.
 460000.    188. 465000.    288. 470000.    649. 475000.    690.
 480000.    568. 485000.    655. 490000.    751. 495000.    765.
 500000.    643. 505000.    761. 510000.    759. 515000.    700.
 520000.    636. 525000.    638. 530000.    541. 535000.    384.
 540000.    303. 545000.    304. 550000.    255. 555000.    204.
 560000.    197. 565000.    186. 570000.    143. 575000.    102.
 580000.     62. 585000.     24. 590000.     10. 595000.     15.
 600000.      5. 605000.     -9. 610000.    -19. 615000.    -32.
 620000.    -42. 625000.    -53. 630000.    -66. 635000.    -78.
 640000.    -89. 645000.    -99. 650000.   -106. 655000.   -112.
 660000.   -126. 665000.   -157. 670000.   -259. 675000.   -397.
 680000.   -546. 685000.   -654. 690000.   -743. 695000.   -832.
 700000.   -898. 705000.   -932. 710000.   -980. 715000.  -1031.
 720000.  -1063. 725000.  -1116. 730000.  -1153. 735000.  -1179.
 740000.  -1201. 745000.  -1212. 750000.  -1213. 755000.  -1207.
 760000.  -1206. 765000.  -1187. 770000.  -1152. 775000.  -1110.
 780000.  -1033. 785000.   -915. 790000.   -767. 795000.   -609.
 800000.   -402. 805000.   -247. 810000.   -188. 815000.   -117.
 820000.     44. 825000.    266. 830000.    637. 835000.    732.
 840000.    886. 845000.    746. 850000.    816. 855000.    865.
 860000.    905. 865000.    946. 870000.    945. 875000.   1059.
 880000.   1076. 885000.   1197. 890000.   1405. 895000.   1244.
 900000.   1317. 905000.   1534. 910000.   1598. 915000.   1482.
 920000.   1253. 925000.   1210. 930000.   1360. 935000.   1065.
 940000.    904. 945000.    981. 950000.   1192. 955000.   1028.
 960000.    894. 965000.    950. 970000.    967. 975000.    888.
 980000.    840. 985000.    943. 990000.   1130. 995000.   1119.
1000000.   1032.1005000.   1030.1010000.   1056.1015000.    949.
1020000.    855.1025000.    883.1030000.    975.1035000.   1040.
1040000.   1047.1045000.   1042.1050000.    767.1055000.    604.
1060000.    559.1065000.    679.1070000.    895.1075000.    862.
1080000.    850.1085000.    656.1090000.    510.1095000.    401.
1100000.    350.1105000.    344.1110000.    315.1115000.    370.
1120000.    427.1125000.    480.1130000.    429.1135000.    365.
1140000.    378.1145000.    337.1150000.    231.1155000.    358.
1160000.    498.1165000.    565.1170000.    607.1175000.    651.
1180000.    627.1185000.    533.1190000.    453.1195000.    431.
1200000.    413.1205000.    421.1210000.    482.1215000.    398.
1220000.    314.1225000.    298.1230000.    260.1235000.    226.
1240000.    205.1245000.    156.1250000.     80.1255000.     58.
1255000.   -673.1178000.   -478.1122000.   -480.1097000.   -132.
1087000.   -132.1081000.   -184. 887000.    585. 835000.    145.
 799000.   -856. 757000.  -1469. 716000.  -1301. 659000.   -996.
 578000.   -481. 525000.   -379. 486000.   -379. 444000.   -781.
 386000.  -2142. 367000.  -2449. 312000.  -3449. 253000.  -4313.
 238000.  -4498. 222000.  -4688. 188000.  -4784. 166000.  -4593.
 152000.  -4545. 144000.  -4450. 114000.  -3963.  65000.  -3433.
      0.  -2358.      0.  -1602.
2                 Dacia_UC
1122000.   -480.1178000.   -478.1255000.   -673.1255000.  -4817.
1209000.  -3135.1154000.  -3036.1130000. -12795.1126000.  -6225.
1123000.  -2920.1122000.   -480.
3                 Sava
1081000.   -184.1087000.   -132.1097000.   -132.1122000.   -480.
1123000.  -2920.1126000.  -6225.1130000. -12795.1140000. -20607.
1144000. -26990.1144000. -29909.1139000. -27092.1134000. -24969.
1123000. -22038.1114000. -15525.1108000. -11837.1103000. -10434.
1089000. -12188.1082000.  -5119.1081000.   -184.
4                 DI_UC
 835000.    145. 887000.    585.1081000.   -184.1082000.  -5119.
1089000. -12188.1103000. -10434.1108000. -11837.1114000. -15525.
1101000. -16287.1092000. -19462.1085000. -17648.1077000. -13879.
1060000.  -8440.1028000.  -3573. 997000.  -2523. 960000.  -4660.
 918000.  -3359. 919000.  -6149. 886000.  -2522. 865000.  -3359.
 850000.  -1964. 840000.  -1103. 835000.    145.
5                 AS_UC
 525000.   -379. 578000.   -481. 659000.   -996. 716000.  -1301.
 757000.  -1469. 799000.   -856. 835000.    145. 840000.  -1103.
 850000.  -1964. 874000. -14897. 852000. -16318. 837000. -13563.
 828000. -14224. 816000. -12376. 794000. -11368. 760000. -10139.
 695000.  -9590. 601000.  -8896. 565000.  -8408. 542000. -12404.
 522000. -10951. 494000. -15944. 506000.  -4323. 516000.  -1948.
 525000.   -379.
6                 AP_UC
 386000.  -2142. 444000.   -781. 486000.   -379. 525000.   -379.
 516000.  -1948. 506000.  -4323. 455000. -10744. 423000. -10409.
 394000. -10143. 391000.  -6519. 388000.  -3995. 386000.  -2142.
7                 Magmatic_UC_2
 238000.  -4498. 253000.  -4313. 312000.  -3449. 367000.  -2449.
 386000.  -2142. 388000.  -3995. 391000.  -6519. 394000. -10143.
 392000. -10002. 363000.  -9464. 316000.  -8861. 264000.  -8431.
 243000.  -5711. 240000.  -5122. 238000.  -4498.
8                 Ty_serpentinized_UL
 144000.  -4450. 152000.  -4545. 166000.  -4593. 188000.  -4784.
 222000.  -4688. 238000.  -4498. 240000.  -5122. 243000.  -5711.
 264000.  -8431. 218000.  -8139. 189000.  -7858. 120000.  -8732.
 133000.  -6341. 144000.  -4450.
9                 Magmatic_UC_1
      0.  -2358.  65000.  -3433. 114000.  -3963. 144000.  -4450.
 133000.  -6341. 120000.  -8732.  90000.  -9206.  66000.  -9937.
  34000. -10582.      0. -11765.      0.  -2358.
10                 Dacia_LC
 874000. -14897. 850000.  -1964. 865000.  -3359. 886000.  -2522.
 919000.  -6149. 918000.  -3359. 960000.  -4660. 997000.  -2523.
1028000.  -3573.1060000.  -8440.1077000. -13879.1085000. -17648.
1092000. -19462.1101000. -16287.1114000. -15525.1123000. -22038.
1134000. -24969.1139000. -27092.1144000. -29909.1144000. -26990.
1140000. -20607.1130000. -12795.1154000.  -3036.1209000.  -3135.
1255000.  -4817.1255000. -32569.1154000. -31139.1134000. -31576.
1127000. -32089.1051000. -34940.1017000. -36149. 992000. -35209.
 957000. -35612. 927000. -26751. 890000. -18342. 874000. -14897.
11                 Adria_MC
 494000. -15944. 522000. -10951. 542000. -12404. 565000.  -8408.
 601000.  -8896. 695000.  -9590. 760000. -10139. 794000. -11368.
 816000. -12376. 828000. -14224. 837000. -13563. 852000. -16318.
 874000. -14897. 890000. -18342. 927000. -26751. 957000. -35612.
 941000. -38297. 927000. -40982. 892000. -36754. 854000. -34104.
 828000. -31718. 801000. -29468. 760000. -26083. 677000. -24954.
 578000. -25992. 520000. -27945. 473000. -31849. 477000. -27917.
 479000. -26148. 482000. -22782. 487000. -19590. 494000. -15944.
12                 AP_LC
 392000. -10002. 394000. -10143. 423000. -10409. 455000. -10744.
 506000.  -4323. 494000. -15944. 487000. -19590. 482000. -22782.
 479000. -26148. 445000. -26854. 434000. -25646. 402000. -21454.
 401000. -21178. 400000. -21009. 399000. -19453. 398000. -17039.
 397000. -14141. 392000. -10002.
13                 Magmatic_LC_2
 264000.  -8431. 316000.  -8861. 363000.  -9464. 392000. -10002.
 397000. -14141. 398000. -17039. 399000. -19453. 400000. -21009.
 382000. -19139. 368000. -17630. 337000. -15069. 324000. -14508.
 307000. -13635. 292000. -12980. 282000. -10646. 264000.  -8431.
14                 Magmatic_LC_1
      0. -18269.      0. -11765.  34000. -10582.  66000.  -9937.
  90000.  -9206. 120000.  -8732. 113000.  -9980. 107000. -11070.
 100000. -11725.  40000. -15380.  11000. -17238.      0. -18269.
15                 Ty_lower_serpentinized
 107000. -11070. 113000.  -9980. 120000.  -8732. 189000.  -7858.
 218000.  -8139. 264000.  -8431. 282000. -10646. 292000. -12980.
 254000. -11179. 190000.  -9978. 156000. -10387. 107000. -11070.
16                 mantle
1051000. -34940.1127000. -32089.1134000. -31576.1154000. -31139.
1255000. -32569.1255000.-116420.1159000.-119438.1122000.-120271.
1096000.-120201.1084000. -92810.1073000. -67402.1051000. -34940.
17                 Adria_LC_L
 473000. -31849. 520000. -27945. 578000. -25992. 677000. -24954.
 760000. -26083. 801000. -29468. 828000. -31718. 854000. -34104.
 892000. -36754. 927000. -40982. 905000. -44738. 885000. -46996.
 851000. -47485. 824000. -44551. 796000. -38390. 762000. -34184.
 687000. -30957. 593000. -31255. 687000. -30957. 593000. -31255.
 513000. -34503. 466000. -39709. 473000. -31849.
18                 Mantle_wedge
 851000. -47485. 885000. -46996. 905000. -44738. 927000. -40982.
 941000. -38297. 957000. -35612. 992000. -35209.1017000. -36149.
1051000. -34940.1073000. -67402.1084000. -92810.1096000.-120201.
1036000.-119925.1007000.-115802. 969000.-114712. 936000.-120525.
 911000.-131285. 900000.-109719. 880000. -81152. 851000. -47485.
19                 mantle
 466000. -39709. 513000. -34503. 593000. -31255. 687000. -30957.
 762000. -34184. 796000. -38390. 824000. -44551. 851000. -47485.
 880000. -81152. 900000.-109719. 911000.-131285. 910000.-131272.
 810000.-146920. 765000.-140927. 710000.-130273. 655000.-121283.
 575000.-124613. 490000.-111628. 455000. -96979. 426000. -87486.
 445000. -61687. 460000. -46705. 466000. -39709.
20                 mantle
      0. -18269.  11000. -17238.  40000. -15380. 100000. -11725.
 107000. -11070. 156000. -10387. 190000.  -9978. 254000. -11179.
 292000. -12980. 307000. -13635. 324000. -14508. 337000. -15069.
 368000. -17630. 382000. -19139. 400000. -21009. 401000. -21178.
 402000. -21454. 434000. -25646. 445000. -26854. 479000. -26148.
 477000. -27917. 473000. -31849. 466000. -39709. 460000. -46705.
 445000. -61687. 426000. -87486. 384000. -83016. 347000. -80294.
 242000. -72808. 151000. -71788.  72000. -76211.      0. -88513.
      0. -18269.
21                 asthenosphere
      0. -88513.  72000. -76211. 151000. -71788. 242000. -72808.
 347000. -80294. 384000. -83016. 384000. -83016. 426000. -87486.
 455000. -96979. 490000.-111628. 575000.-124613. 655000.-121283.
 710000.-130273. 765000.-140927. 810000.-146920. 910000.-131272.
 910000.-131272. 911000.-131285. 936000.-120525. 969000.-114712.
1007000.-115802.1036000.-119925.1096000.-120201.1122000.-120271.
1159000.-119438.1255000.-116420.1255000.-400000.      0.-400000.
      0. -88513.
0 1 1 0 0
0.,0.,0.,0.,0.
0.,0.,1320.,0.,0.
0  5000  252  96
      0.   -500.  -1500.  -2000.  -2500.  -3000.  -3500.  -4000.
  -4500.  -5500.  -6000.  -6500.  -7000.  -8000.  -9000. -10000.
 -11000. -12000. -13000. -14000. -15000. -17000. -19000. -21000.
 -23000. -25000. -27000. -29000. -31000. -33000. -35000. -37000.
 -40000. -43000. -46000. -49000. -52000. -55000. -58000. -61000.
 -64000. -67000. -70000. -75000. -80000. -85000. -90000. -95000.
-100000.-105000.-110000.-115000.-120000.-125000.-130000.-135000.
-140000.-145000.-150000.-155000.-160000.-165000.-170000.-175000.
-180000.-185000.-190000.-195000.-200000.-205000.-210000.-215000.
-220000.-225000.-230000.-240000.-250000.-260000.-270000.-280000.
-290000.-300000.-305000.-310000.-315000.-320000.-330000.-340000.
-350000.-360000.-370000.-380000.-390000.-400000.-410000.-420000.
0,4,5,3,4
0,0,0,0,0